num_clients = 6;
num_sites = 3;

revenue = [
  [ 99, 64, 53 ],
  [ 45, 29, 37 ],
  [ 53, 23, 21 ],
  [ 58, 22, 55 ],
  [ 54, 87, 43 ],
  [ 15, 68, 78 ],
];

construction_cost = [ 1511, 4985, 4777 ];

demand_base = [ 34, 15, 45, 28, 50, 49 ];
demand_lower = [ 27, 12, 36, 22, 40, 39 ];
demand_upper = [ 40, 18, 54, 33, 60, 58 ];

capacities = [ 242, 297, 199 ];
